\ Model k_center_OPT
\ LP format - for model browsing. Use MPS format to capture full model detail.
Minimize
 
Subject To
 R0: y_0 + y_1 + y_2 + y_3 + y_4 = 1
 R1: x_0,0 + x_1,0 + x_4,0 = 1
 R2: - y_0 + x_0,0 <= 0
 R3: x_0,1 + x_1,1 + x_2,1 = 1
 R4: - y_0 + x_0,1 <= 0
 R5: x_1,2 + x_2,2 + x_3,2 = 1
 R6: - y_0 + x_0,2 <= 0
 R7: x_0,2 = 0
 R8: x_2,3 + x_3,3 + x_4,3 = 1
 R9: - y_0 + x_0,3 <= 0
 R10: x_0,3 = 0
 R11: x_0,4 + x_3,4 + x_4,4 = 1
 R12: - y_0 + x_0,4 <= 0
 R13: y_0 + y_1 + y_2 + y_3 + y_4 = 1
 R14: x_0,0 + x_1,0 + x_4,0 = 1
 R15: x_1,0 - y_1 <= 0
 R16: x_0,1 + x_1,1 + x_2,1 = 1
 R17: - y_1 + x_1,1 <= 0
 R18: x_1,2 + x_2,2 + x_3,2 = 1
 R19: - y_1 + x_1,2 <= 0
 R20: x_2,3 + x_3,3 + x_4,3 = 1
 R21: - y_1 + x_1,3 <= 0
 R22: x_1,3 = 0
 R23: x_0,4 + x_3,4 + x_4,4 = 1
 R24: - y_1 + x_1,4 <= 0
 R25: x_1,4 = 0
 R26: y_0 + y_1 + y_2 + y_3 + y_4 = 1
 R27: x_0,0 + x_1,0 + x_4,0 = 1
 R28: x_2,0 - y_2 <= 0
 R29: x_2,0 = 0
 R30: x_0,1 + x_1,1 + x_2,1 = 1
 R31: x_2,1 - y_2 <= 0
 R32: x_1,2 + x_2,2 + x_3,2 = 1
 R33: - y_2 + x_2,2 <= 0
 R34: x_2,3 + x_3,3 + x_4,3 = 1
 R35: - y_2 + x_2,3 <= 0
 R36: x_0,4 + x_3,4 + x_4,4 = 1
 R37: - y_2 + x_2,4 <= 0
 R38: x_2,4 = 0
 R39: y_0 + y_1 + y_2 + y_3 + y_4 = 1
 R40: x_0,0 + x_1,0 + x_4,0 = 1
 R41: x_3,0 - y_3 <= 0
 R42: x_3,0 = 0
 R43: x_0,1 + x_1,1 + x_2,1 = 1
 R44: x_3,1 - y_3 <= 0
 R45: x_3,1 = 0
 R46: x_1,2 + x_2,2 + x_3,2 = 1
 R47: x_3,2 - y_3 <= 0
 R48: x_2,3 + x_3,3 + x_4,3 = 1
 R49: - y_3 + x_3,3 <= 0
 R50: x_0,4 + x_3,4 + x_4,4 = 1
 R51: - y_3 + x_3,4 <= 0
 R52: y_0 + y_1 + y_2 + y_3 + y_4 = 1
 R53: x_0,0 + x_1,0 + x_4,0 = 1
 R54: x_4,0 - y_4 <= 0
 R55: x_0,1 + x_1,1 + x_2,1 = 1
 R56: x_4,1 - y_4 <= 0
 R57: x_4,1 = 0
 R58: x_1,2 + x_2,2 + x_3,2 = 1
 R59: x_4,2 - y_4 <= 0
 R60: x_4,2 = 0
 R61: x_2,3 + x_3,3 + x_4,3 = 1
 R62: x_4,3 - y_4 <= 0
 R63: x_0,4 + x_3,4 + x_4,4 = 1
 R64: - y_4 + x_4,4 <= 0
Bounds
Binaries
 y_0 x_0,0 x_1,0 x_2,0 x_3,0 x_4,0 y_1 x_0,1 x_1,1 x_2,1 x_3,1 x_4,1 y_2
 x_0,2 x_1,2 x_2,2 x_3,2 x_4,2 y_3 x_0,3 x_1,3 x_2,3 x_3,3 x_4,3 y_4 x_0,4
 x_1,4 x_2,4 x_3,4 x_4,4
End
